\ LP format - for model browsing. Use MPS format to capture full model detail.
Minimize
  - 7.6690201139e+10 Y0_0_1_1_0 - 7.6690201139e+10 Y0_0_1_1_1
Subject To
 R0: X0_0_0 + X0_0_1 = 1
 R1: X0_1_0 + X0_1_1 = 1
 R2: X1_0_0 + X1_0_1 = 1
 R3: X1_1_0 + X1_1_1 = 1
 R4: X0_0_0 + X0_1_0 = 1
 R5: X1_0_0 + X1_1_0 = 1
 R6: X0_0_1 + X0_1_1 = 1
 R7: X1_0_1 + X1_1_1 = 1
 R8: - X0_0_0 + Y0_0_1_1_0 <= 0
 R9: - X0_0_0 + Y0_0_1_1_0 <= 0
 R10: - 2 X0_0_0 + Y0_0_1_1_0 >= -1
 R11: - X0_0_1 + Y0_0_1_1_1 <= 0
 R12: - X0_0_1 + Y0_0_1_1_1 <= 0
 R13: - 2 X0_0_1 + Y0_0_1_1_1 >= -1
Bounds
Binaries
 X0_0_0 X0_0_1 X0_1_0 X0_1_1 X1_0_0 X1_0_1 X1_1_0 X1_1_1 Y0_0_1_1_0
 Y0_0_1_1_1
End
